(set-logic HORN)
(declare-datatypes ((Nat_1 0)) (((Z_1 ) (S_1 (unS_0 Nat_1)))))
(declare-fun diseqNat_0 (Nat_1 Nat_1) Bool)
(declare-fun unS_1 (Nat_1 Nat_1) Bool)
(declare-fun isZ_0 (Nat_1) Bool)
(declare-fun isS_0 (Nat_1) Bool)
(assert (forall ((x_13 Nat_1) (x_12 Nat_1))
	(=> (= x_13 (S_1 x_12))
	    (unS_1 x_12 x_13))))
(assert (isZ_0 Z_1))
(assert (forall ((x_14 Nat_1))
	(isS_0 (S_1 x_14))))
(assert (forall ((x_15 Nat_1))
	(diseqNat_0 Z_1 (S_1 x_15))))
(assert (forall ((x_16 Nat_1))
	(diseqNat_0 (S_1 x_16) Z_1)))
(assert (forall ((x_17 Nat_1) (x_18 Nat_1))
	(=> (diseqNat_0 x_17 x_18)
	    (diseqNat_0 (S_1 x_17) (S_1 x_18)))))
(declare-fun add_0 (Nat_1 Nat_1 Nat_1) Bool)
(declare-fun minus_0 (Nat_1 Nat_1 Nat_1) Bool)
(declare-fun le_0 (Nat_1 Nat_1) Bool)
(declare-fun ge_0 (Nat_1 Nat_1) Bool)
(declare-fun lt_0 (Nat_1 Nat_1) Bool)
(declare-fun gt_0 (Nat_1 Nat_1) Bool)
(declare-fun mult_0 (Nat_1 Nat_1 Nat_1) Bool)
(declare-fun div_0 (Nat_1 Nat_1 Nat_1) Bool)
(declare-fun mod_0 (Nat_1 Nat_1 Nat_1) Bool)
(assert (forall ((y_1 Nat_1))
	(add_0 y_1 Z_1 y_1)))
(assert (forall ((x_10 Nat_1) (y_1 Nat_1) (r_0 Nat_1))
	(=> (add_0 r_0 x_10 y_1)
	    (add_0 (S_1 r_0) (S_1 x_10) y_1))))
(assert (forall ((y_1 Nat_1))
	(minus_0 Z_1 Z_1 y_1)))
(assert (forall ((x_10 Nat_1) (y_1 Nat_1) (r_0 Nat_1))
	(=> (minus_0 r_0 x_10 y_1)
	    (minus_0 (S_1 r_0) (S_1 x_10) y_1))))
(assert (forall ((y_1 Nat_1))
	(le_0 Z_1 y_1)))
(assert (forall ((x_10 Nat_1) (y_1 Nat_1))
	(=> (le_0 x_10 y_1)
	    (le_0 (S_1 x_10) (S_1 y_1)))))
(assert (forall ((y_1 Nat_1))
	(ge_0 y_1 Z_1)))
(assert (forall ((x_10 Nat_1) (y_1 Nat_1))
	(=> (ge_0 x_10 y_1)
	    (ge_0 (S_1 x_10) (S_1 y_1)))))
(assert (forall ((y_1 Nat_1))
	(lt_0 Z_1 (S_1 y_1))))
(assert (forall ((x_10 Nat_1) (y_1 Nat_1))
	(=> (lt_0 x_10 y_1)
	    (lt_0 (S_1 x_10) (S_1 y_1)))))
(assert (forall ((y_1 Nat_1))
	(gt_0 (S_1 y_1) Z_1)))
(assert (forall ((x_10 Nat_1) (y_1 Nat_1))
	(=> (gt_0 x_10 y_1)
	    (gt_0 (S_1 x_10) (S_1 y_1)))))
(assert (forall ((y_1 Nat_1))
	(mult_0 Z_1 Z_1 y_1)))
(assert (forall ((x_10 Nat_1) (y_1 Nat_1) (r_0 Nat_1) (z_1 Nat_1))
	(=>	(and (mult_0 r_0 x_10 y_1)
			(add_0 z_1 r_0 y_1))
		(mult_0 z_1 (S_1 x_10) y_1))))
(assert (forall ((x_10 Nat_1) (y_1 Nat_1))
	(=> (lt_0 x_10 y_1)
	    (div_0 Z_1 x_10 y_1))))
(assert (forall ((x_10 Nat_1) (y_1 Nat_1) (r_0 Nat_1) (z_1 Nat_1))
	(=>	(and (ge_0 x_10 y_1)
			(minus_0 z_1 x_10 y_1)
			(div_0 r_0 z_1 y_1))
		(div_0 (S_1 r_0) x_10 y_1))))
(assert (forall ((x_10 Nat_1) (y_1 Nat_1))
	(=> (lt_0 x_10 y_1)
	    (mod_0 x_10 x_10 y_1))))
(assert (forall ((x_10 Nat_1) (y_1 Nat_1) (r_0 Nat_1) (z_1 Nat_1))
	(=>	(and (ge_0 x_10 y_1)
			(minus_0 z_1 x_10 y_1)
			(mod_0 r_0 z_1 y_1))
		(mod_0 r_0 x_10 y_1))))
(declare-datatypes ((Nat_0 0)) (((Z_0 ) (S_0 (projS_0 Nat_0)))))
(declare-fun diseqNat_1 (Nat_0 Nat_0) Bool)
(declare-fun projS_1 (Nat_0 Nat_0) Bool)
(declare-fun isZ_1 (Nat_0) Bool)
(declare-fun isS_1 (Nat_0) Bool)
(assert (forall ((x_21 Nat_0) (x_20 Nat_0))
	(=> (= x_21 (S_0 x_20))
	    (projS_1 x_20 x_21))))
(assert (isZ_1 Z_0))
(assert (forall ((x_22 Nat_0))
	(isS_1 (S_0 x_22))))
(assert (forall ((x_23 Nat_0))
	(diseqNat_1 Z_0 (S_0 x_23))))
(assert (forall ((x_24 Nat_0))
	(diseqNat_1 (S_0 x_24) Z_0)))
(assert (forall ((x_25 Nat_0) (x_26 Nat_0))
	(=> (diseqNat_1 x_25 x_26)
	    (diseqNat_1 (S_0 x_25) (S_0 x_26)))))
(declare-fun max_0 (Nat_0 Nat_0 Nat_0) Bool)
(assert (forall ((x_0 Nat_0) (y_0 Nat_0) (z_0 Nat_0) (x_1 Nat_0) (x_2 Nat_0) (x_3 Nat_0))
	(=>	(and (= x_2 (S_0 x_3))
			(max_0 x_3 z_0 x_1)
			(= x_0 (S_0 z_0))
			(= y_0 (S_0 x_1)))
		(max_0 x_2 x_0 y_0))))
(assert (forall ((x_0 Nat_0) (y_0 Nat_0) (z_0 Nat_0) (x_4 Nat_0))
	(=>	(and (= x_4 (S_0 z_0))
			(= x_0 (S_0 z_0))
			(= y_0 Z_0))
		(max_0 x_4 x_0 y_0))))
(assert (forall ((x_0 Nat_0) (y_0 Nat_0) (x_5 Nat_0))
	(=>	(and (= x_5 y_0)
			(= x_0 Z_0))
		(max_0 x_5 x_0 y_0))))
(assert (forall ((a_0 Nat_0) (b_0 Nat_0) (c_0 Nat_0) (x_6 Nat_0) (x_7 Nat_0) (x_8 Nat_0) (x_9 Nat_0))
	(=>	(and (diseqNat_1 x_7 x_9)
			(max_0 x_6 a_0 b_0)
			(max_0 x_7 x_6 c_0)
			(max_0 x_8 b_0 c_0)
			(max_0 x_9 a_0 x_8))
		false)))
(check-sat)
